921,528
523,624
1095,471
415,364
738,388
765,939
972,617
654,353
1051,526
681,706
1166,563
778,336
591,406
841,487
1155,481
880,470
808,533
598,662
1020,67
695,318
852,461
874,672
178,485
948,542
858,753
778,336
